Academic license - for non-commercial use only - expires 2022-11-10
Using license file /home/benedond/Apps/gurobi/gurobi950/gurobi.lic
Using gurobi.env file
Set parameter Threads to value 1
Changed value of parameter TimeLimit to 1200.0
   Prev: inf  Min: 0.0  Max: inf  Default: inf
Gurobi Optimizer version 9.1.2 build v9.1.2rc0 (linux64)
Thread count: 2 physical cores, 4 logical processors, using up to 1 threads
Optimize a model with 1621 rows, 1490 columns and 7154 nonzeros
Model fingerprint: 0x203ce935
Variable types: 52 continuous, 1438 integer (1438 binary)
Coefficient statistics:
  Matrix range     [2e-01, 5e+02]
  Objective range  [5e-03, 4e-01]
  Bounds range     [1e+00, 1e+00]
  RHS range        [1e+00, 1e+03]
Found heuristic solution: objective 4.5609549
Presolve removed 186 rows and 101 columns
Presolve time: 0.03s
Presolved: 1435 rows, 1389 columns, 6520 nonzeros
Variable types: 50 continuous, 1339 integer (1339 binary)

Root relaxation: objective 2.227716e+00, 1601 iterations, 0.03 seconds

    Nodes    |    Current Node    |     Objective Bounds      |     Work
 Expl Unexpl |  Obj  Depth IntInf | Incumbent    BestBd   Gap | It/Node Time

     0     0    2.22772    0  129    4.56095    2.22772  51.2%     -    0s
H    0     0                       4.4663423    2.22772  50.1%     -    0s
H    0     0                       4.2866396    2.22772  48.0%     -    0s
     0     0    2.26996    0  101    4.28664    2.26996  47.0%     -    0s
H    0     0                       4.1188919    2.26996  44.9%     -    0s
     0     0    2.29803    0  117    4.11889    2.29803  44.2%     -    0s
     0     0    2.38598    0  139    4.11889    2.38598  42.1%     -    0s
H    0     0                       4.0033333    2.38598  40.4%     -    0s
H    0     0                       3.7719459    2.38598  36.7%     -    0s
     0     0    2.40279    0  129    3.77195    2.40279  36.3%     -    0s
     0     0    2.46926    0  157    3.77195    2.46926  34.5%     -    0s
     0     0    2.49857    0  119    3.77195    2.49857  33.8%     -    0s
     0     0    2.54292    0  132    3.77195    2.54292  32.6%     -    0s
     0     0    2.54567    0  148    3.77195    2.54567  32.5%     -    0s
     0     0    2.54641    0  149    3.77195    2.54641  32.5%     -    0s
     0     0    2.54662    0  157    3.77195    2.54662  32.5%     -    0s
     0     0    2.54677    0  162    3.77195    2.54677  32.5%     -    0s
     0     0    2.54677    0  171    3.77195    2.54677  32.5%     -    0s
     0     0    2.56106    0  140    3.77195    2.56106  32.1%     -    0s
     0     0    2.56271    0  139    3.77195    2.56271  32.1%     -    0s
     0     0    2.56301    0  147    3.77195    2.56301  32.1%     -    0s
     0     0    2.56322    0  121    3.77195    2.56322  32.0%     -    0s
     0     0    2.56343    0  122    3.77195    2.56343  32.0%     -    0s
     0     0    2.56355    0  136    3.77195    2.56355  32.0%     -    0s
     0     0    2.57388    0  139    3.77195    2.57388  31.8%     -    0s
     0     0    2.57488    0  134    3.77195    2.57488  31.7%     -    0s
     0     0    2.57542    0  134    3.77195    2.57542  31.7%     -    0s
     0     0    2.57548    0  144    3.77195    2.57548  31.7%     -    0s
     0     0    2.58336    0  156    3.77195    2.58336  31.5%     -    0s
H    0     0                       3.7139820    2.58336  30.4%     -    0s
     0     0    2.58416    0  146    3.71398    2.58416  30.4%     -    0s
     0     0    2.58434    0  115    3.71398    2.58434  30.4%     -    0s
     0     0    2.58639    0  123    3.71398    2.58639  30.4%     -    0s
     0     0    2.58819    0  125    3.71398    2.58819  30.3%     -    0s
     0     0    2.58847    0  140    3.71398    2.58847  30.3%     -    0s
     0     0    2.58864    0  123    3.71398    2.58864  30.3%     -    0s
     0     0    2.59087    0  127    3.71398    2.59087  30.2%     -    0s
     0     0    2.59140    0  140    3.71398    2.59140  30.2%     -    0s
     0     0    2.59174    0  155    3.71398    2.59174  30.2%     -    0s
     0     0    2.59213    0  162    3.71398    2.59213  30.2%     -    0s
     0     0    2.59283    0  160    3.71398    2.59283  30.2%     -    0s
     0     0    2.59307    0  167    3.71398    2.59307  30.2%     -    0s
     0     0    2.59315    0  163    3.71398    2.59315  30.2%     -    0s
     0     0    2.59473    0  173    3.71398    2.59473  30.1%     -    0s
     0     0    2.59506    0  167    3.71398    2.59506  30.1%     -    0s
     0     0    2.59540    0  164    3.71398    2.59540  30.1%     -    0s
     0     0    2.59541    0  161    3.71398    2.59541  30.1%     -    0s
     0     0    2.60682    0  149    3.71398    2.60682  29.8%     -    0s
     0     0    2.60965    0  172    3.71398    2.60965  29.7%     -    0s
     0     0    2.61040    0  183    3.71398    2.61040  29.7%     -    0s
     0     0    2.61055    0  175    3.71398    2.61055  29.7%     -    0s
     0     0    2.61478    0  162    3.71398    2.61478  29.6%     -    0s
H    0     0                       3.6492342    2.61478  28.3%     -    1s
     0     0    2.61607    0  178    3.64923    2.61607  28.3%     -    1s
     0     0    2.61627    0  190    3.64923    2.61627  28.3%     -    1s
     0     0    2.62196    0  205    3.64923    2.62196  28.2%     -    1s
     0     0    2.62486    0  184    3.64923    2.62486  28.1%     -    1s
     0     0    2.62553    0  183    3.64923    2.62553  28.1%     -    1s
     0     0    2.62578    0  187    3.64923    2.62578  28.0%     -    1s
     0     0    2.63139    0  160    3.64923    2.63139  27.9%     -    1s
     0     0    2.63325    0  138    3.64923    2.63325  27.8%     -    1s
     0     0    2.63386    0  164    3.64923    2.63386  27.8%     -    1s
     0     0    2.63412    0  141    3.64923    2.63412  27.8%     -    1s
     0     0    2.63609    0  173    3.64923    2.63609  27.8%     -    1s
     0     0    2.63647    0  163    3.64923    2.63647  27.8%     -    1s
     0     0    2.63716    0  183    3.64923    2.63716  27.7%     -    1s
     0     0    2.63743    0  160    3.64923    2.63743  27.7%     -    1s
     0     0    2.64042    0  160    3.64923    2.64042  27.6%     -    1s
     0     0    2.64146    0  164    3.64923    2.64146  27.6%     -    1s
     0     0    2.64210    0  164    3.64923    2.64210  27.6%     -    1s
     0     0    2.64232    0  146    3.64923    2.64232  27.6%     -    1s
     0     0    2.64676    0  140    3.64923    2.64676  27.5%     -    1s
     0     0    2.64755    0  161    3.64923    2.64755  27.4%     -    1s
     0     0    2.64807    0  134    3.64923    2.64807  27.4%     -    1s
     0     0    2.64826    0  166    3.64923    2.64826  27.4%     -    1s
     0     0    2.65069    0  144    3.64923    2.65069  27.4%     -    1s
     0     0    2.65182    0  166    3.64923    2.65182  27.3%     -    1s
     0     0    2.65205    0  167    3.64923    2.65205  27.3%     -    1s
     0     0    2.65323    0  159    3.64923    2.65323  27.3%     -    1s
     0     0    2.65323    0  159    3.64923    2.65323  27.3%     -    1s
     0     2    2.65399    0  159    3.64923    2.65399  27.3%     -    1s
H   24    24                       3.4968797    2.67388  23.5%   238    2s
H   27    27                       3.4816937    2.67388  23.2%   261    2s
H   81    81                       3.3945405    2.67388  21.2%   159    3s
H  195   171                       3.3780540    2.67965  20.7%   137    4s
H  203   176                       3.3591351    2.67965  20.2%   134    4s
   243   206    2.85780   15   80    3.35914    2.68067  20.2%   138    5s
H  378   295                       3.3289099    2.68367  19.4%   133    5s
H  397   305                       3.3073423    2.68367  18.9%   135    6s
H  512   367                       3.2869189    2.72727  17.0%   131    8s
   545   389    3.05391   43  210    3.28692    2.72727  17.0%   123   10s
   716   424    2.72727   18  136    3.28692    2.72727  17.0%   144   15s
H  985   422                       3.2170180    2.77694  13.7%   146   18s
H  991   404                       3.2033243    2.77694  13.3%   146   18s
H 1043   390                       3.1825406    2.77730  12.7%   142   19s
  1100   387     cutoff   18         3.18254    2.79131  12.3%   142   20s
  1566   512    3.05156   31   72    3.18254    2.83733  10.8%   134   25s
H 2183   745                       3.1278469    2.87910  7.95%   123   29s
  2234   767     cutoff   30         3.12785    2.87946  7.94%   122   30s
H 2349   799                       3.1155315    2.88266  7.47%   121   31s
* 2601   857              34       3.1128469    2.90066  6.82%   120   33s
  2746   896    3.06508   18   87    3.11285    2.91052  6.50%   120   35s
H 3144   989                       3.0955045    2.92165  5.62%   116   37s
  3461  1084     cutoff   25         3.09550    2.92907  5.38%   114   40s
  4108  1272     cutoff   18         3.09550    2.94575  4.84%   109   45s
* 4543  1295              58       3.0845045    2.95752  4.12%   107   48s
  4799  1313     cutoff   26         3.08450    2.96415  3.90%   106   50s
  5428  1333    3.05197   27   57    3.08450    2.98271  3.30%   104   55s
  6409  1337    3.06147   48   75    3.08450    3.00522  2.57%  98.9   60s
* 6748  1274              29       3.0843874    3.01208  2.34%  96.8   61s
* 6749  1114              28       3.0713784    3.01208  1.93%  96.8   61s
  7346   834    3.04640   25   79    3.07138    3.02908  1.38%  93.9   65s
H 7583   453                       3.0584955    3.03771  0.68%  92.6   65s

Cutting planes:
  Cover: 13
  Implied bound: 9
  Clique: 9
  MIR: 173
  StrongCG: 5
  Flow cover: 220
  GUB cover: 1
  Inf proof: 6
  RLT: 19
  Relax-and-lift: 175

Explored 8065 nodes (724032 simplex iterations) in 66.87 seconds
Thread count was 1 (of 4 available processors)

Solution count 10: 3.0585 3.07138 3.08439 ... 3.20332

Optimal solution found (tolerance 1.00e-04)
Best objective 3.058495478641e+00, best bound 3.058248562526e+00, gap 0.0081%
